4 
5  36 59 
6  14 29 39 47 54 
7  02 09 17 24 32 39 47 54 
8  02 09 17 24 32 39 47 54 
9  02 09 17 24 32 47 
10  02 17 32 47 
11  02 17 32 47 
12  02 17 32 47 
13  02 16 31 46 
14  01 16 31 46 
15  01 16 24 31 39 46 54 
16  01 09 16 24 31 39 46 54 
17  01 09 16 24 31 39 46 54 
18  01 08 16 23 31 38 46 53 
19  01 17 32 47 
20  02 17 34 49 
21  04 19 34 49 
22  04 19 34 49 
23  04 21 
0 
